(set-logic QF_LIA)
(declare-const tour (Array Int Int))
(assert (forall ((i Int) (j Int)) (implies (and (and (>= i 1) (<= i 6)) (and (>= j 1) (<= j 6)) (not (= i j))) (not (= (select tour i) (select tour j))))))
(assert (and (>= (select tour 1) 1) (<= (select tour 1) 6)))
(assert (and (>= (select tour 2) 1) (<= (select tour 2) 6)))
(assert (and (>= (select tour 3) 1) (<= (select tour 3) 6)))
(assert (and (>= (select tour 4) 1) (<= (select tour 4) 6)))
(assert (and (>= (select tour 5) 1) (<= (select tour 5) 6)))
(assert (and (>= (select tour 6) 1) (<= (select tour 6) 6)))
